\ This file was automatically generated by Zimpl
\ var w1 >= 0;
\ var w2 <= 0;
\ var w3 >= -infinity;
\ minimize Z :      8*w1 + 10*w2 + 6*w3;
\ subto r1:     2*w1 + 1*w2 + -1*w3 >= 3;
\ subto r2:     2*w1 + 5*w2 + 3*w3 >= 2;
\Problem name: pd
Minimize
 Z:  +8 w1 +10 w2 +6 w3
Subject to
 r1_1:
  - w3 + w2 +2 w1 >= 3
 r2_1:
  +3 w3 +5 w2 +2 w1 >= 2
Bounds
 0 <= w1 <= +inf
 w2 = 0
 -inf <= w3 <= +inf
End
